32 1000
6 313
11 874
72 169
23 697
24 58
39 33
86 954
10 860
55 133
97 589
72 656
21 981
40 925
65 898
67 831
7 493
26 984
58 917
2 602
53 405
46 570
29 539
34 16
82 760
52 299
4 702
57 51
36 162
74 625
2 563
20 20
16 895
